%%% static parameters %%%
timespan = 1;
Fact = [4];
Distr1 = [15];
Distr2 = [30];
Clients_N = [300];
Demand_W = [15];
Lt0 = [4];
Lt1 = [4];
SS_ = [0.85];
DS_D = [8];
K = [200];
MA = [500];
%%% dynamic parameters %%%
lost_ratio_sales_ret_th = 0.42784649060876234;
lost_ratio_sales_ret_w = 8;
lost_ratio_sales_dis_th = 0.7257450473860678;
lost_ratio_sales_dis_w = 89;
lost_ratio_sales_fac_th = 0.22640763748435222;
lost_ratio_sales_fac_w = 19;
stock_customer_MA_mean_relative_th = 0.5334289050971385;
stock_customer_MA_mean_relative_w = 3;
stock_distributor_MA_mean_relative_th = 0.7071554782556838;
stock_distributor_MA_mean_relative_w = 24;
stock_retailer_MA_mean_relative_th = 0.6821770271600752;
stock_retailer_MA_mean_relative_w = 71;
stock_factory_MA_mean_relative_th = 0.17344432763528994;
stock_factory_MA_mean_relative_w = 31;
